NAME 
OBJSENSE MAX
ROWS
 N  OBJ
 L  packing[0]
 L  packing[1]
 L  packing[2]
 L  packing[3]
 L  packing[4]
 L  packing[5]
 L  packing[6]
 L  packing[7]
 L  packing[8]
 L  packing[9]
 L  packing[10]
 L  packing[11]
 L  packing[12]
 L  packing[13]
 L  packing[14]
 L  packing[15]
 L  packing[16]
 L  packing[17]
 L  packing[18]
 L  packing[19]
 L  packing[20]
 L  packing[21]
 L  packing[22]
 L  packing[23]
 L  packing[24]
 L  packing[25]
 L  packing[26]
 L  packing[27]
 L  packing[28]
 L  packing[29]
 L  packing[30]
 L  packing[31]
 L  packing[32]
 L  packing[33]
 L  packing[34]
 L  packing[35]
 L  packing[36]
 L  packing[37]
 L  packing[38]
 L  packing[39]
 L  packing[40]
 L  packing[41]
 L  packing[42]
 L  packing[43]
 L  packing[44]
 L  packing[45]
 L  packing[46]
 L  packing[47]
 L  packing[48]
 L  packing[49]
 L  R50     
COLUMNS
    MARKER    'MARKER'                 'INTORG'
    x[1]      OBJ       170
    x[1]      packing[0]  22
    x[1]      packing[2]  104
    x[1]      packing[3]  113
    x[1]      packing[4]  142
    x[1]      packing[5]  91
    x[1]      packing[6]  29
    x[1]      packing[7]  176
    x[1]      packing[8]  127
    x[1]      packing[11]  106
    x[1]      packing[12]  7
    x[1]      packing[13]  131
    x[1]      packing[14]  61
    x[1]      packing[17]  11
    x[1]      packing[20]  9
    x[1]      packing[21]  127
    x[1]      packing[22]  166
    x[1]      packing[25]  83
    x[1]      packing[29]  33
    x[1]      packing[30]  41
    x[1]      packing[31]  140
    x[1]      packing[32]  8
    x[1]      packing[33]  46
    x[1]      packing[35]  116
    x[1]      packing[36]  61
    x[1]      packing[37]  153
    x[1]      packing[38]  12
    x[1]      packing[39]  92
    x[1]      packing[40]  108
    x[1]      packing[42]  25
    x[1]      packing[43]  111
    x[1]      packing[44]  178
    x[1]      packing[46]  5
    x[1]      packing[47]  26
    x[1]      packing[48]  71
    x[2]      OBJ       138
    x[2]      packing[0]  192
    x[2]      packing[2]  17
    x[2]      packing[3]  52
    x[2]      packing[6]  184
    x[2]      packing[8]  36
    x[2]      packing[9]  95
    x[2]      packing[11]  197
    x[2]      packing[12]  35
    x[2]      packing[13]  30
    x[2]      packing[14]  25
    x[2]      packing[15]  158
    x[2]      packing[16]  122
    x[2]      packing[17]  83
    x[2]      packing[18]  23
    x[2]      packing[19]  161
    x[2]      packing[20]  110
    x[2]      packing[21]  23
    x[2]      packing[23]  105
    x[2]      packing[24]  125
    x[2]      packing[25]  90
    x[2]      packing[26]  179
    x[2]      packing[27]  109
    x[2]      packing[28]  69
    x[2]      packing[29]  104
    x[2]      packing[30]  195
    x[2]      packing[31]  64
    x[2]      packing[33]  170
    x[2]      packing[34]  186
    x[2]      packing[36]  154
    x[2]      packing[37]  18
    x[2]      packing[38]  45
    x[2]      packing[39]  51
    x[2]      packing[40]  10
    x[2]      packing[41]  84
    x[2]      packing[42]  117
    x[2]      packing[43]  130
    x[2]      packing[44]  34
    x[2]      packing[45]  56
    x[2]      packing[46]  81
    x[2]      packing[47]  34
    x[2]      packing[48]  85
    x[3]      OBJ       171
    x[3]      packing[0]  145
    x[3]      packing[1]  79
    x[3]      packing[4]  155
    x[3]      packing[5]  191
    x[3]      packing[6]  142
    x[3]      packing[8]  17
    x[3]      packing[9]  125
    x[3]      packing[14]  6
    x[3]      packing[15]  37
    x[3]      packing[16]  61
    x[3]      packing[19]  6
    x[3]      packing[20]  165
    x[3]      packing[21]  9
    x[3]      packing[22]  90
    x[3]      packing[23]  145
    x[3]      packing[24]  120
    x[3]      packing[25]  181
    x[3]      packing[26]  80
    x[3]      packing[27]  142
    x[3]      packing[28]  52
    x[3]      packing[29]  25
    x[3]      packing[31]  89
    x[3]      packing[32]  172
    x[3]      packing[33]  94
    x[3]      packing[34]  59
    x[3]      packing[35]  64
    x[3]      packing[36]  146
    x[3]      packing[37]  140
    x[3]      packing[38]  131
    x[3]      packing[39]  17
    x[3]      packing[40]  174
    x[3]      packing[41]  197
    x[3]      packing[42]  87
    x[3]      packing[43]  79
    x[3]      packing[44]  13
    x[3]      packing[45]  154
    x[3]      packing[47]  32
    x[3]      packing[48]  48
    x[3]      packing[49]  177
    x[4]      OBJ       73
    x[4]      packing[0]  36
    x[4]      packing[1]  12
    x[4]      packing[2]  28
    x[4]      packing[5]  20
    x[4]      packing[6]  8
    x[4]      packing[7]  146
    x[4]      packing[8]  130
    x[4]      packing[10]  175
    x[4]      packing[12]  41
    x[4]      packing[15]  169
    x[4]      packing[16]  98
    x[4]      packing[18]  90
    x[4]      packing[19]  102
    x[4]      packing[20]  123
    x[4]      packing[21]  4
    x[4]      packing[22]  45
    x[4]      packing[23]  87
    x[4]      packing[24]  78
    x[4]      packing[26]  137
    x[4]      packing[27]  38
    x[4]      packing[28]  28
    x[4]      packing[29]  94
    x[4]      packing[31]  67
    x[4]      packing[32]  113
    x[4]      packing[34]  120
    x[4]      packing[35]  47
    x[4]      packing[37]  121
    x[4]      packing[39]  167
    x[4]      packing[41]  151
    x[4]      packing[42]  178
    x[4]      packing[43]  148
    x[4]      packing[44]  83
    x[4]      packing[45]  128
    x[4]      packing[47]  152
    x[4]      packing[48]  163
    x[4]      packing[49]  33
    x[5]      OBJ       196
    x[5]      packing[0]  152
    x[5]      packing[1]  61
    x[5]      packing[3]  137
    x[5]      packing[4]  152
    x[5]      packing[6]  174
    x[5]      packing[8]  37
    x[5]      packing[9]  148
    x[5]      packing[10]  164
    x[5]      packing[13]  24
    x[5]      packing[14]  153
    x[5]      packing[15]  120
    x[5]      packing[16]  63
    x[5]      packing[17]  20
    x[5]      packing[18]  56
    x[5]      packing[19]  23
    x[5]      packing[20]  80
    x[5]      packing[21]  159
    x[5]      packing[23]  65
    x[5]      packing[24]  111
    x[5]      packing[25]  163
    x[5]      packing[27]  158
    x[5]      packing[28]  23
    x[5]      packing[29]  55
    x[5]      packing[30]  37
    x[5]      packing[31]  174
    x[5]      packing[32]  112
    x[5]      packing[33]  115
    x[5]      packing[34]  51
    x[5]      packing[35]  169
    x[5]      packing[36]  117
    x[5]      packing[37]  61
    x[5]      packing[38]  150
    x[5]      packing[39]  135
    x[5]      packing[41]  173
    x[5]      packing[42]  45
    x[5]      packing[43]  83
    x[5]      packing[44]  14
    x[5]      packing[47]  12
    x[5]      packing[48]  118
    x[5]      packing[49]  131
    x[6]      OBJ       97
    x[6]      packing[0]  21
    x[6]      packing[2]  169
    x[6]      packing[5]  15
    x[6]      packing[7]  118
    x[6]      packing[9]  127
    x[6]      packing[10]  78
    x[6]      packing[12]  3
    x[6]      packing[13]  62
    x[6]      packing[15]  51
    x[6]      packing[16]  131
    x[6]      packing[17]  106
    x[6]      packing[18]  177
    x[6]      packing[19]  190
    x[6]      packing[21]  167
    x[6]      packing[22]  123
    x[6]      packing[24]  25
    x[6]      packing[26]  194
    x[6]      packing[27]  34
    x[6]      packing[28]  138
    x[6]      packing[29]  59
    x[6]      packing[30]  191
    x[6]      packing[31]  39
    x[6]      packing[32]  90
    x[6]      packing[33]  157
    x[6]      packing[35]  114
    x[6]      packing[38]  151
    x[6]      packing[39]  51
    x[6]      packing[40]  119
    x[6]      packing[42]  5
    x[6]      packing[43]  30
    x[6]      packing[44]  79
    x[6]      packing[45]  146
    x[6]      packing[46]  17
    x[6]      packing[47]  19
    x[6]      packing[49]  127
    x[7]      OBJ       171
    x[7]      packing[0]  21
    x[7]      packing[1]  136
    x[7]      packing[2]  61
    x[7]      packing[3]  50
    x[7]      packing[4]  136
    x[7]      packing[5]  135
    x[7]      packing[6]  26
    x[7]      packing[7]  71
    x[7]      packing[8]  166
    x[7]      packing[9]  69
    x[7]      packing[10]  188
    x[7]      packing[12]  80
    x[7]      packing[13]  1
    x[7]      packing[14]  180
    x[7]      packing[15]  110
    x[7]      packing[16]  55
    x[7]      packing[17]  140
    x[7]      packing[18]  139
    x[7]      packing[19]  167
    x[7]      packing[20]  175
    x[7]      packing[21]  30
    x[7]      packing[24]  76
    x[7]      packing[25]  111
    x[7]      packing[26]  50
    x[7]      packing[28]  62
    x[7]      packing[30]  167
    x[7]      packing[31]  122
    x[7]      packing[32]  196
    x[7]      packing[33]  4
    x[7]      packing[34]  123
    x[7]      packing[35]  59
    x[7]      packing[36]  15
    x[7]      packing[37]  152
    x[7]      packing[38]  160
    x[7]      packing[40]  191
    x[7]      packing[41]  165
    x[7]      packing[42]  90
    x[7]      packing[43]  149
    x[7]      packing[44]  191
    x[7]      packing[45]  89
    x[7]      packing[46]  10
    x[7]      packing[47]  165
    x[7]      packing[48]  86
    x[7]      packing[49]  85
    x[8]      OBJ       139
    x[8]      packing[0]  75
    x[8]      packing[1]  153
    x[8]      packing[2]  26
    x[8]      packing[3]  64
    x[8]      packing[5]  38
    x[8]      packing[6]  115
    x[8]      packing[7]  78
    x[8]      packing[9]  28
    x[8]      packing[11]  61
    x[8]      packing[12]  82
    x[8]      packing[15]  47
    x[8]      packing[16]  174
    x[8]      packing[18]  13
    x[8]      packing[19]  72
    x[8]      packing[20]  81
    x[8]      packing[22]  123
    x[8]      packing[23]  66
    x[8]      packing[24]  7
    x[8]      packing[25]  3
    x[8]      packing[26]  21
    x[8]      packing[27]  3
    x[8]      packing[28]  186
    x[8]      packing[29]  60
    x[8]      packing[30]  154
    x[8]      packing[32]  27
    x[8]      packing[33]  16
    x[8]      packing[34]  137
    x[8]      packing[37]  18
    x[8]      packing[39]  128
    x[8]      packing[40]  79
    x[8]      packing[42]  6
    x[8]      packing[43]  76
    x[8]      packing[44]  168
    x[8]      packing[45]  179
    x[8]      packing[47]  181
    x[8]      packing[48]  104
    x[8]      R50       1
    x[9]      OBJ       70
    x[9]      packing[1]  75
    x[9]      packing[3]  76
    x[9]      packing[4]  57
    x[9]      packing[5]  142
    x[9]      packing[6]  24
    x[9]      packing[7]  53
    x[9]      packing[8]  49
    x[9]      packing[9]  123
    x[9]      packing[13]  62
    x[9]      packing[16]  196
    x[9]      packing[18]  73
    x[9]      packing[19]  159
    x[9]      packing[20]  10
    x[9]      packing[24]  115
    x[9]      packing[25]  1
    x[9]      packing[28]  46
    x[9]      packing[29]  177
    x[9]      packing[30]  107
    x[9]      packing[31]  186
    x[9]      packing[33]  195
    x[9]      packing[34]  146
    x[9]      packing[39]  106
    x[9]      packing[40]  57
    x[9]      packing[41]  86
    x[9]      packing[42]  44
    x[9]      packing[44]  90
    x[9]      packing[45]  120
    x[9]      packing[46]  86
    x[9]      packing[47]  98
    x[9]      packing[48]  38
    x[9]      packing[49]  56
    x[10]     OBJ       197
    x[10]     packing[0]  35
    x[10]     packing[1]  12
    x[10]     packing[4]  99
    x[10]     packing[5]  190
    x[10]     packing[6]  48
    x[10]     packing[7]  80
    x[10]     packing[8]  169
    x[10]     packing[11]  174
    x[10]     packing[12]  185
    x[10]     packing[13]  60
    x[10]     packing[14]  132
    x[10]     packing[15]  134
    x[10]     packing[16]  22
    x[10]     packing[17]  62
    x[10]     packing[18]  95
    x[10]     packing[20]  131
    x[10]     packing[23]  51
    x[10]     packing[24]  134
    x[10]     packing[25]  120
    x[10]     packing[26]  148
    x[10]     packing[27]  187
    x[10]     packing[28]  109
    x[10]     packing[31]  12
    x[10]     packing[32]  73
    x[10]     packing[33]  40
    x[10]     packing[35]  137
    x[10]     packing[38]  191
    x[10]     packing[39]  97
    x[10]     packing[40]  20
    x[10]     packing[42]  60
    x[10]     packing[44]  49
    x[10]     packing[45]  4
    x[10]     packing[46]  183
    x[10]     packing[47]  102
    x[10]     packing[48]  21
    x[10]     packing[49]  56
    x[11]     OBJ       200
    x[11]     packing[1]  139
    x[11]     packing[2]  64
    x[11]     packing[3]  69
    x[11]     packing[4]  95
    x[11]     packing[5]  34
    x[11]     packing[6]  187
    x[11]     packing[7]  130
    x[11]     packing[8]  169
    x[11]     packing[9]  186
    x[11]     packing[10]  133
    x[11]     packing[11]  26
    x[11]     packing[12]  134
    x[11]     packing[13]  14
    x[11]     packing[14]  75
    x[11]     packing[15]  168
    x[11]     packing[16]  92
    x[11]     packing[17]  161
    x[11]     packing[18]  103
    x[11]     packing[19]  130
    x[11]     packing[20]  94
    x[11]     packing[21]  94
    x[11]     packing[22]  19
    x[11]     packing[23]  95
    x[11]     packing[25]  173
    x[11]     packing[26]  62
    x[11]     packing[27]  199
    x[11]     packing[28]  154
    x[11]     packing[30]  23
    x[11]     packing[31]  70
    x[11]     packing[32]  46
    x[11]     packing[34]  18
    x[11]     packing[35]  36
    x[11]     packing[36]  183
    x[11]     packing[37]  55
    x[11]     packing[38]  117
    x[11]     packing[39]  110
    x[11]     packing[40]  97
    x[11]     packing[42]  44
    x[11]     packing[43]  171
    x[11]     packing[45]  58
    x[11]     packing[46]  152
    x[11]     packing[47]  130
    x[11]     packing[48]  51
    x[11]     packing[49]  64
    x[11]     R50       1
    x[12]     OBJ       182
    x[12]     packing[0]  34
    x[12]     packing[1]  114
    x[12]     packing[2]  18
    x[12]     packing[4]  115
    x[12]     packing[5]  91
    x[12]     packing[6]  86
    x[12]     packing[7]  12
    x[12]     packing[8]  114
    x[12]     packing[9]  174
    x[12]     packing[10]  175
    x[12]     packing[11]  87
    x[12]     packing[12]  57
    x[12]     packing[13]  22
    x[12]     packing[14]  181
    x[12]     packing[15]  169
    x[12]     packing[16]  132
    x[12]     packing[17]  38
    x[12]     packing[19]  76
    x[12]     packing[20]  169
    x[12]     packing[21]  30
    x[12]     packing[25]  172
    x[12]     packing[27]  43
    x[12]     packing[28]  64
    x[12]     packing[29]  102
    x[12]     packing[30]  175
    x[12]     packing[31]  33
    x[12]     packing[32]  61
    x[12]     packing[33]  198
    x[12]     packing[34]  106
    x[12]     packing[36]  76
    x[12]     packing[37]  164
    x[12]     packing[38]  59
    x[12]     packing[39]  80
    x[12]     packing[40]  99
    x[12]     packing[41]  69
    x[12]     packing[43]  142
    x[12]     packing[44]  63
    x[12]     packing[45]  61
    x[12]     packing[46]  32
    x[12]     packing[47]  79
    x[12]     packing[48]  155
    x[12]     packing[49]  17
    x[12]     R50       1
    x[13]     OBJ       108
    x[13]     packing[0]  21
    x[13]     packing[1]  144
    x[13]     packing[2]  196
    x[13]     packing[3]  28
    x[13]     packing[4]  139
    x[13]     packing[5]  88
    x[13]     packing[6]  83
    x[13]     packing[7]  14
    x[13]     packing[9]  97
    x[13]     packing[11]  160
    x[13]     packing[12]  36
    x[13]     packing[13]  42
    x[13]     packing[14]  92
    x[13]     packing[17]  6
    x[13]     packing[20]  72
    x[13]     packing[22]  161
    x[13]     packing[23]  170
    x[13]     packing[24]  82
    x[13]     packing[25]  7
    x[13]     packing[26]  47
    x[13]     packing[27]  87
    x[13]     packing[30]  42
    x[13]     packing[32]  94
    x[13]     packing[34]  105
    x[13]     packing[35]  86
    x[13]     packing[36]  32
    x[13]     packing[37]  131
    x[13]     packing[38]  61
    x[13]     packing[39]  172
    x[13]     packing[40]  9
    x[13]     packing[41]  142
    x[13]     packing[42]  187
    x[13]     packing[43]  77
    x[13]     packing[44]  197
    x[13]     packing[45]  53
    x[13]     packing[46]  147
    x[13]     packing[49]  174
    x[14]     OBJ       157
    x[14]     packing[0]  168
    x[14]     packing[1]  186
    x[14]     packing[2]  158
    x[14]     packing[3]  119
    x[14]     packing[4]  81
    x[14]     packing[5]  49
    x[14]     packing[6]  22
    x[14]     packing[7]  140
    x[14]     packing[8]  122
    x[14]     packing[9]  167
    x[14]     packing[10]  165
    x[14]     packing[11]  27
    x[14]     packing[12]  99
    x[14]     packing[13]  105
    x[14]     packing[14]  131
    x[14]     packing[15]  103
    x[14]     packing[16]  1
    x[14]     packing[17]  193
    x[14]     packing[19]  37
    x[14]     packing[20]  189
    x[14]     packing[22]  109
    x[14]     packing[24]  111
    x[14]     packing[25]  128
    x[14]     packing[26]  112
    x[14]     packing[27]  32
    x[14]     packing[30]  96
    x[14]     packing[31]  192
    x[14]     packing[32]  39
    x[14]     packing[33]  172
    x[14]     packing[34]  128
    x[14]     packing[37]  169
    x[14]     packing[38]  63
    x[14]     packing[40]  108
    x[14]     packing[46]  102
    x[14]     packing[47]  68
    x[14]     packing[49]  6
    x[14]     R50       1
    x[15]     OBJ       108
    x[15]     packing[0]  155
    x[15]     packing[3]  179
    x[15]     packing[4]  134
    x[15]     packing[5]  68
    x[15]     packing[7]  166
    x[15]     packing[9]  184
    x[15]     packing[10]  173
    x[15]     packing[12]  28
    x[15]     packing[13]  112
    x[15]     packing[15]  90
    x[15]     packing[16]  149
    x[15]     packing[17]  56
    x[15]     packing[18]  157
    x[15]     packing[20]  145
    x[15]     packing[21]  15
    x[15]     packing[23]  24
    x[15]     packing[24]  189
    x[15]     packing[26]  177
    x[15]     packing[28]  83
    x[15]     packing[29]  86
    x[15]     packing[30]  41
    x[15]     packing[31]  100
    x[15]     packing[34]  95
    x[15]     packing[35]  7
    x[15]     packing[36]  180
    x[15]     packing[38]  45
    x[15]     packing[39]  140
    x[15]     packing[40]  55
    x[15]     packing[41]  8
    x[15]     packing[42]  39
    x[15]     packing[43]  60
    x[15]     packing[44]  83
    x[15]     packing[47]  37
    x[15]     packing[49]  169
    x[16]     OBJ       173
    x[16]     packing[0]  24
    x[16]     packing[1]  168
    x[16]     packing[2]  178
    x[16]     packing[3]  127
    x[16]     packing[5]  148
    x[16]     packing[6]  84
    x[16]     packing[7]  66
    x[16]     packing[10]  97
    x[16]     packing[14]  142
    x[16]     packing[17]  25
    x[16]     packing[18]  113
    x[16]     packing[19]  132
    x[16]     packing[20]  122
    x[16]     packing[21]  177
    x[16]     packing[24]  57
    x[16]     packing[25]  35
    x[16]     packing[26]  122
    x[16]     packing[27]  135
    x[16]     packing[30]  101
    x[16]     packing[31]  144
    x[16]     packing[33]  63
    x[16]     packing[35]  131
    x[16]     packing[36]  131
    x[16]     packing[38]  27
    x[16]     packing[40]  3
    x[16]     packing[41]  163
    x[16]     packing[42]  141
    x[16]     packing[44]  99
    x[16]     R50       1
    x[17]     OBJ       72
    x[17]     packing[0]  142
    x[17]     packing[1]  118
    x[17]     packing[3]  179
    x[17]     packing[5]  169
    x[17]     packing[6]  22
    x[17]     packing[7]  12
    x[17]     packing[8]  138
    x[17]     packing[9]  79
    x[17]     packing[10]  121
    x[17]     packing[13]  68
    x[17]     packing[14]  102
    x[17]     packing[19]  12
    x[17]     packing[21]  190
    x[17]     packing[22]  191
    x[17]     packing[23]  156
    x[17]     packing[25]  158
    x[17]     packing[26]  5
    x[17]     packing[27]  184
    x[17]     packing[29]  72
    x[17]     packing[30]  10
    x[17]     packing[31]  133
    x[17]     packing[32]  20
    x[17]     packing[33]  169
    x[17]     packing[35]  111
    x[17]     packing[36]  193
    x[17]     packing[37]  80
    x[17]     packing[38]  54
    x[17]     packing[39]  40
    x[17]     packing[40]  63
    x[17]     packing[41]  152
    x[17]     packing[42]  6
    x[17]     packing[43]  189
    x[17]     packing[44]  53
    x[17]     packing[45]  43
    x[17]     packing[46]  95
    x[17]     packing[47]  50
    x[17]     packing[49]  138
    x[18]     OBJ       39
    x[18]     packing[0]  87
    x[18]     packing[1]  14
    x[18]     packing[4]  26
    x[18]     packing[5]  42
    x[18]     packing[7]  82
    x[18]     packing[8]  108
    x[18]     packing[9]  156
    x[18]     packing[10]  88
    x[18]     packing[12]  121
    x[18]     packing[13]  159
    x[18]     packing[14]  190
    x[18]     packing[15]  156
    x[18]     packing[16]  105
    x[18]     packing[17]  96
    x[18]     packing[19]  58
    x[18]     packing[20]  166
    x[18]     packing[21]  46
    x[18]     packing[22]  155
    x[18]     packing[24]  48
    x[18]     packing[25]  34
    x[18]     packing[26]  135
    x[18]     packing[27]  171
    x[18]     packing[28]  68
    x[18]     packing[29]  101
    x[18]     packing[30]  4
    x[18]     packing[31]  132
    x[18]     packing[33]  142
    x[18]     packing[34]  36
    x[18]     packing[35]  49
    x[18]     packing[36]  66
    x[18]     packing[38]  157
    x[18]     packing[41]  95
    x[18]     packing[43]  45
    x[18]     packing[46]  32
    x[19]     OBJ       114
    x[19]     packing[2]  16
    x[19]     packing[5]  3
    x[19]     packing[6]  32
    x[19]     packing[8]  160
    x[19]     packing[9]  13
    x[19]     packing[10]  162
    x[19]     packing[11]  25
    x[19]     packing[12]  79
    x[19]     packing[13]  50
    x[19]     packing[14]  27
    x[19]     packing[15]  67
    x[19]     packing[16]  79
    x[19]     packing[17]  167
    x[19]     packing[18]  5
    x[19]     packing[19]  53
    x[19]     packing[20]  28
    x[19]     packing[21]  22
    x[19]     packing[22]  72
    x[19]     packing[23]  116
    x[19]     packing[24]  49
    x[19]     packing[25]  138
    x[19]     packing[28]  14
    x[19]     packing[29]  184
    x[19]     packing[30]  166
    x[19]     packing[31]  47
    x[19]     packing[35]  66
    x[19]     packing[39]  30
    x[19]     packing[40]  169
    x[19]     packing[41]  86
    x[19]     packing[42]  176
    x[19]     packing[45]  135
    x[19]     packing[46]  190
    x[19]     packing[47]  89
    x[19]     packing[48]  140
    x[20]     OBJ       130
    x[20]     packing[0]  26
    x[20]     packing[1]  78
    x[20]     packing[2]  123
    x[20]     packing[3]  79
    x[20]     packing[4]  56
    x[20]     packing[6]  165
    x[20]     packing[7]  85
    x[20]     packing[8]  118
    x[20]     packing[9]  153
    x[20]     packing[11]  88
    x[20]     packing[12]  49
    x[20]     packing[15]  144
    x[20]     packing[16]  153
    x[20]     packing[17]  8
    x[20]     packing[18]  116
    x[20]     packing[20]  50
    x[20]     packing[21]  42
    x[20]     packing[22]  138
    x[20]     packing[23]  125
    x[20]     packing[24]  86
    x[20]     packing[25]  164
    x[20]     packing[26]  182
    x[20]     packing[27]  62
    x[20]     packing[28]  83
    x[20]     packing[29]  126
    x[20]     packing[30]  157
    x[20]     packing[31]  155
    x[20]     packing[33]  145
    x[20]     packing[34]  23
    x[20]     packing[37]  191
    x[20]     packing[38]  37
    x[20]     packing[39]  113
    x[20]     packing[40]  54
    x[20]     packing[41]  57
    x[20]     packing[42]  171
    x[20]     packing[43]  179
    x[20]     packing[44]  11
    x[20]     packing[45]  193
    x[20]     packing[46]  170
    x[20]     packing[47]  2
    x[20]     packing[48]  75
    x[20]     packing[49]  156
    MARKER    'MARKER'                 'INTEND'
RHS
    RHS1      packing[0]  678
    RHS1      packing[1]  745
    RHS1      packing[2]  579
    RHS1      packing[3]  636
    RHS1      packing[4]  694
    RHS1      packing[5]  757
    RHS1      packing[6]  716
    RHS1      packing[7]  715
    RHS1      packing[8]  830
    RHS1      packing[9]  962
    RHS1      packing[10]  860
    RHS1      packing[11]  476
    RHS1      packing[12]  518
    RHS1      packing[13]  471
    RHS1      packing[14]  749
    RHS1      packing[15]  862
    RHS1      packing[16]  817
    RHS1      packing[17]  586
    RHS1      packing[18]  580
    RHS1      packing[19]  689
    RHS1      packing[20]  960
    RHS1      packing[21]  568
    RHS1      packing[22]  696
    RHS1      packing[23]  603
    RHS1      packing[24]  707
    RHS1      packing[25]  881
    RHS1      packing[26]  826
    RHS1      packing[27]  792
    RHS1      packing[28]  590
    RHS1      packing[29]  639
    RHS1      packing[30]  854
    RHS1      packing[31]  950
    RHS1      packing[32]  526
    RHS1      packing[33]  863
    RHS1      packing[34]  667
    RHS1      packing[35]  596
    RHS1      packing[36]  677
    RHS1      packing[37]  727
    RHS1      packing[38]  730
    RHS1      packing[39]  765
    RHS1      packing[40]  708
    RHS1      packing[41]  814
    RHS1      packing[42]  711
    RHS1      packing[43]  835
    RHS1      packing[44]  703
    RHS1      packing[45]  710
    RHS1      packing[46]  651
    RHS1      packing[47]  638
    RHS1      packing[48]  578
    RHS1      packing[49]  695
    RHS1      R50       4
BOUNDS
 BV BND1      x[1]    
 BV BND1      x[2]    
 BV BND1      x[3]    
 BV BND1      x[4]    
 BV BND1      x[5]    
 BV BND1      x[6]    
 BV BND1      x[7]    
 BV BND1      x[8]    
 BV BND1      x[9]    
 BV BND1      x[10]   
 BV BND1      x[11]   
 BV BND1      x[12]   
 BV BND1      x[13]   
 BV BND1      x[14]   
 BV BND1      x[15]   
 BV BND1      x[16]   
 BV BND1      x[17]   
 BV BND1      x[18]   
 BV BND1      x[19]   
 BV BND1      x[20]   
ENDATA
